%BLOCK LATTICE_CART
      5.354303263931860      0.000000020979051      -0.000000045382064
      0.000000000000000      5.464712838198050      -0.000000022217890
      0.000000000000000      0.000000000000000      5.464712901973540
%ENDBLOCK LATTICE_CART

%BLOCK POSITIONS_FRAC
 Si   0.0000000010156104   -0.0000000052843190   -0.0000000022398782
 Si   0.0000000003890876    0.4999999918333550    0.4999999996678209
 Si   0.4999999947395860    0.0000000028247302    0.4999999978435630
 Si   0.4999999986172011    0.4999999947890371   -0.0000000003555242
 Si   0.7500000012842391    0.2500000025071490    0.7500000069380760
 Si   0.2499999999921950    0.2500000020123491    0.2500000009545950
 Si   0.2500000023566170    0.7500000028791100    0.7499999983991179
 Si   0.7500000016054651    0.7500000084385893    0.2499999987922310
%ENDBLOCK POSITIONS_FRAC

%BLOCK KPOINTS_LIST
   0.4375000000000000    0.4375000000000000    0.4375000000000000       0.003906250000000
   0.4375000000000000    0.4375000000000000    0.3125000000000000       0.003906250000000
   0.4375000000000000    0.4375000000000000    0.1875000000000000       0.003906250000000
   0.4375000000000000    0.4375000000000000    0.0625000000000000       0.003906250000000
   0.4375000000000000    0.4375000000000000   -0.0625000000000000       0.003906250000000
   0.4375000000000000    0.4375000000000000   -0.1875000000000000       0.003906250000000
   0.4375000000000000    0.4375000000000000   -0.3125000000000000       0.003906250000000
   0.4375000000000000    0.4375000000000000   -0.4375000000000000       0.003906250000000
   0.4375000000000000    0.3125000000000000    0.4375000000000000       0.003906250000000
   0.4375000000000000    0.3125000000000000    0.3125000000000000       0.003906250000000
   0.4375000000000000    0.3125000000000000    0.1875000000000000       0.003906250000000
   0.4375000000000000    0.3125000000000000    0.0625000000000000       0.003906250000000
   0.4375000000000000    0.3125000000000000   -0.0625000000000000       0.003906250000000
   0.4375000000000000    0.3125000000000000   -0.1875000000000000       0.003906250000000
   0.4375000000000000    0.3125000000000000   -0.3125000000000000       0.003906250000000
   0.4375000000000000    0.3125000000000000   -0.4375000000000000       0.003906250000000
   0.4375000000000000    0.1875000000000000    0.4375000000000000       0.003906250000000
   0.4375000000000000    0.1875000000000000    0.3125000000000000       0.003906250000000
   0.4375000000000000    0.1875000000000000    0.1875000000000000       0.003906250000000
   0.4375000000000000    0.1875000000000000    0.0625000000000000       0.003906250000000
   0.4375000000000000    0.1875000000000000   -0.0625000000000000       0.003906250000000
   0.4375000000000000    0.1875000000000000   -0.1875000000000000       0.003906250000000
   0.4375000000000000    0.1875000000000000   -0.3125000000000000       0.003906250000000
   0.4375000000000000    0.1875000000000000   -0.4375000000000000       0.003906250000000
   0.4375000000000000    0.0625000000000000    0.4375000000000000       0.003906250000000
   0.4375000000000000    0.0625000000000000    0.3125000000000000       0.003906250000000
   0.4375000000000000    0.0625000000000000    0.1875000000000000       0.003906250000000
   0.4375000000000000    0.0625000000000000    0.0625000000000000       0.003906250000000
   0.4375000000000000    0.0625000000000000   -0.0625000000000000       0.003906250000000
   0.4375000000000000    0.0625000000000000   -0.1875000000000000       0.003906250000000
   0.4375000000000000    0.0625000000000000   -0.3125000000000000       0.003906250000000
   0.4375000000000000    0.0625000000000000   -0.4375000000000000       0.003906250000000
   0.4375000000000000   -0.0625000000000000    0.4375000000000000       0.003906250000000
   0.4375000000000000   -0.0625000000000000    0.3125000000000000       0.003906250000000
   0.4375000000000000   -0.0625000000000000    0.1875000000000000       0.003906250000000
   0.4375000000000000   -0.0625000000000000    0.0625000000000000       0.003906250000000
   0.4375000000000000   -0.0625000000000000   -0.0625000000000000       0.003906250000000
   0.4375000000000000   -0.0625000000000000   -0.1875000000000000       0.003906250000000
   0.4375000000000000   -0.0625000000000000   -0.3125000000000000       0.003906250000000
   0.4375000000000000   -0.0625000000000000   -0.4375000000000000       0.003906250000000
   0.4375000000000000   -0.1875000000000000    0.4375000000000000       0.003906250000000
   0.4375000000000000   -0.1875000000000000    0.3125000000000000       0.003906250000000
   0.4375000000000000   -0.1875000000000000    0.1875000000000000       0.003906250000000
   0.4375000000000000   -0.1875000000000000    0.0625000000000000       0.003906250000000
   0.4375000000000000   -0.1875000000000000   -0.0625000000000000       0.003906250000000
   0.4375000000000000   -0.1875000000000000   -0.1875000000000000       0.003906250000000
   0.4375000000000000   -0.1875000000000000   -0.3125000000000000       0.003906250000000
   0.4375000000000000   -0.1875000000000000   -0.4375000000000000       0.003906250000000
   0.4375000000000000   -0.3125000000000000    0.4375000000000000       0.003906250000000
   0.4375000000000000   -0.3125000000000000    0.3125000000000000       0.003906250000000
   0.4375000000000000   -0.3125000000000000    0.1875000000000000       0.003906250000000
   0.4375000000000000   -0.3125000000000000    0.0625000000000000       0.003906250000000
   0.4375000000000000   -0.3125000000000000   -0.0625000000000000       0.003906250000000
   0.4375000000000000   -0.3125000000000000   -0.1875000000000000       0.003906250000000
   0.4375000000000000   -0.3125000000000000   -0.3125000000000000       0.003906250000000
   0.4375000000000000   -0.3125000000000000   -0.4375000000000000       0.003906250000000
   0.4375000000000000   -0.4375000000000000    0.4375000000000000       0.003906250000000
   0.4375000000000000   -0.4375000000000000    0.3125000000000000       0.003906250000000
   0.4375000000000000   -0.4375000000000000    0.1875000000000000       0.003906250000000
   0.4375000000000000   -0.4375000000000000    0.0625000000000000       0.003906250000000
   0.4375000000000000   -0.4375000000000000   -0.0625000000000000       0.003906250000000
   0.4375000000000000   -0.4375000000000000   -0.1875000000000000       0.003906250000000
   0.4375000000000000   -0.4375000000000000   -0.3125000000000000       0.003906250000000
   0.4375000000000000   -0.4375000000000000   -0.4375000000000000       0.003906250000000
   0.3125000000000000    0.4375000000000000    0.4375000000000000       0.003906250000000
   0.3125000000000000    0.4375000000000000    0.3125000000000000       0.003906250000000
   0.3125000000000000    0.4375000000000000    0.1875000000000000       0.003906250000000
   0.3125000000000000    0.4375000000000000    0.0625000000000000       0.003906250000000
   0.3125000000000000    0.4375000000000000   -0.0625000000000000       0.003906250000000
   0.3125000000000000    0.4375000000000000   -0.1875000000000000       0.003906250000000
   0.3125000000000000    0.4375000000000000   -0.3125000000000000       0.003906250000000
   0.3125000000000000    0.4375000000000000   -0.4375000000000000       0.003906250000000
   0.3125000000000000    0.3125000000000000    0.4375000000000000       0.003906250000000
   0.3125000000000000    0.3125000000000000    0.3125000000000000       0.003906250000000
   0.3125000000000000    0.3125000000000000    0.1875000000000000       0.003906250000000
   0.3125000000000000    0.3125000000000000    0.0625000000000000       0.003906250000000
   0.3125000000000000    0.3125000000000000   -0.0625000000000000       0.003906250000000
   0.3125000000000000    0.3125000000000000   -0.1875000000000000       0.003906250000000
   0.3125000000000000    0.3125000000000000   -0.3125000000000000       0.003906250000000
   0.3125000000000000    0.3125000000000000   -0.4375000000000000       0.003906250000000
   0.3125000000000000    0.1875000000000000    0.4375000000000000       0.003906250000000
   0.3125000000000000    0.1875000000000000    0.3125000000000000       0.003906250000000
   0.3125000000000000    0.1875000000000000    0.1875000000000000       0.003906250000000
   0.3125000000000000    0.1875000000000000    0.0625000000000000       0.003906250000000
   0.3125000000000000    0.1875000000000000   -0.0625000000000000       0.003906250000000
   0.3125000000000000    0.1875000000000000   -0.1875000000000000       0.003906250000000
   0.3125000000000000    0.1875000000000000   -0.3125000000000000       0.003906250000000
   0.3125000000000000    0.1875000000000000   -0.4375000000000000       0.003906250000000
   0.3125000000000000    0.0625000000000000    0.4375000000000000       0.003906250000000
   0.3125000000000000    0.0625000000000000    0.3125000000000000       0.003906250000000
   0.3125000000000000    0.0625000000000000    0.1875000000000000       0.003906250000000
   0.3125000000000000    0.0625000000000000    0.0625000000000000       0.003906250000000
   0.3125000000000000    0.0625000000000000   -0.0625000000000000       0.003906250000000
   0.3125000000000000    0.0625000000000000   -0.1875000000000000       0.003906250000000
   0.3125000000000000    0.0625000000000000   -0.3125000000000000       0.003906250000000
   0.3125000000000000    0.0625000000000000   -0.4375000000000000       0.003906250000000
   0.3125000000000000   -0.0625000000000000    0.4375000000000000       0.003906250000000
   0.3125000000000000   -0.0625000000000000    0.3125000000000000       0.003906250000000
   0.3125000000000000   -0.0625000000000000    0.1875000000000000       0.003906250000000
   0.3125000000000000   -0.0625000000000000    0.0625000000000000       0.003906250000000
   0.3125000000000000   -0.0625000000000000   -0.0625000000000000       0.003906250000000
   0.3125000000000000   -0.0625000000000000   -0.1875000000000000       0.003906250000000
   0.3125000000000000   -0.0625000000000000   -0.3125000000000000       0.003906250000000
   0.3125000000000000   -0.0625000000000000   -0.4375000000000000       0.003906250000000
   0.3125000000000000   -0.1875000000000000    0.4375000000000000       0.003906250000000
   0.3125000000000000   -0.1875000000000000    0.3125000000000000       0.003906250000000
   0.3125000000000000   -0.1875000000000000    0.1875000000000000       0.003906250000000
   0.3125000000000000   -0.1875000000000000    0.0625000000000000       0.003906250000000
   0.3125000000000000   -0.1875000000000000   -0.0625000000000000       0.003906250000000
   0.3125000000000000   -0.1875000000000000   -0.1875000000000000       0.003906250000000
   0.3125000000000000   -0.1875000000000000   -0.3125000000000000       0.003906250000000
   0.3125000000000000   -0.1875000000000000   -0.4375000000000000       0.003906250000000
   0.3125000000000000   -0.3125000000000000    0.4375000000000000       0.003906250000000
   0.3125000000000000   -0.3125000000000000    0.3125000000000000       0.003906250000000
   0.3125000000000000   -0.3125000000000000    0.1875000000000000       0.003906250000000
   0.3125000000000000   -0.3125000000000000    0.0625000000000000       0.003906250000000
   0.3125000000000000   -0.3125000000000000   -0.0625000000000000       0.003906250000000
   0.3125000000000000   -0.3125000000000000   -0.1875000000000000       0.003906250000000
   0.3125000000000000   -0.3125000000000000   -0.3125000000000000       0.003906250000000
   0.3125000000000000   -0.3125000000000000   -0.4375000000000000       0.003906250000000
   0.3125000000000000   -0.4375000000000000    0.4375000000000000       0.003906250000000
   0.3125000000000000   -0.4375000000000000    0.3125000000000000       0.003906250000000
   0.3125000000000000   -0.4375000000000000    0.1875000000000000       0.003906250000000
   0.3125000000000000   -0.4375000000000000    0.0625000000000000       0.003906250000000
   0.3125000000000000   -0.4375000000000000   -0.0625000000000000       0.003906250000000
   0.3125000000000000   -0.4375000000000000   -0.1875000000000000       0.003906250000000
   0.3125000000000000   -0.4375000000000000   -0.3125000000000000       0.003906250000000
   0.3125000000000000   -0.4375000000000000   -0.4375000000000000       0.003906250000000
   0.1875000000000000    0.4375000000000000    0.4375000000000000       0.003906250000000
   0.1875000000000000    0.4375000000000000    0.3125000000000000       0.003906250000000
   0.1875000000000000    0.4375000000000000    0.1875000000000000       0.003906250000000
   0.1875000000000000    0.4375000000000000    0.0625000000000000       0.003906250000000
   0.1875000000000000    0.4375000000000000   -0.0625000000000000       0.003906250000000
   0.1875000000000000    0.4375000000000000   -0.1875000000000000       0.003906250000000
   0.1875000000000000    0.4375000000000000   -0.3125000000000000       0.003906250000000
   0.1875000000000000    0.4375000000000000   -0.4375000000000000       0.003906250000000
   0.1875000000000000    0.3125000000000000    0.4375000000000000       0.003906250000000
   0.1875000000000000    0.3125000000000000    0.3125000000000000       0.003906250000000
   0.1875000000000000    0.3125000000000000    0.1875000000000000       0.003906250000000
   0.1875000000000000    0.3125000000000000    0.0625000000000000       0.003906250000000
   0.1875000000000000    0.3125000000000000   -0.0625000000000000       0.003906250000000
   0.1875000000000000    0.3125000000000000   -0.1875000000000000       0.003906250000000
   0.1875000000000000    0.3125000000000000   -0.3125000000000000       0.003906250000000
   0.1875000000000000    0.3125000000000000   -0.4375000000000000       0.003906250000000
   0.1875000000000000    0.1875000000000000    0.4375000000000000       0.003906250000000
   0.1875000000000000    0.1875000000000000    0.3125000000000000       0.003906250000000
   0.1875000000000000    0.1875000000000000    0.1875000000000000       0.003906250000000
   0.1875000000000000    0.1875000000000000    0.0625000000000000       0.003906250000000
   0.1875000000000000    0.1875000000000000   -0.0625000000000000       0.003906250000000
   0.1875000000000000    0.1875000000000000   -0.1875000000000000       0.003906250000000
   0.1875000000000000    0.1875000000000000   -0.3125000000000000       0.003906250000000
   0.1875000000000000    0.1875000000000000   -0.4375000000000000       0.003906250000000
   0.1875000000000000    0.0625000000000000    0.4375000000000000       0.003906250000000
   0.1875000000000000    0.0625000000000000    0.3125000000000000       0.003906250000000
   0.1875000000000000    0.0625000000000000    0.1875000000000000       0.003906250000000
   0.1875000000000000    0.0625000000000000    0.0625000000000000       0.003906250000000
   0.1875000000000000    0.0625000000000000   -0.0625000000000000       0.003906250000000
   0.1875000000000000    0.0625000000000000   -0.1875000000000000       0.003906250000000
   0.1875000000000000    0.0625000000000000   -0.3125000000000000       0.003906250000000
   0.1875000000000000    0.0625000000000000   -0.4375000000000000       0.003906250000000
   0.1875000000000000   -0.0625000000000000    0.4375000000000000       0.003906250000000
   0.1875000000000000   -0.0625000000000000    0.3125000000000000       0.003906250000000
   0.1875000000000000   -0.0625000000000000    0.1875000000000000       0.003906250000000
   0.1875000000000000   -0.0625000000000000    0.0625000000000000       0.003906250000000
   0.1875000000000000   -0.0625000000000000   -0.0625000000000000       0.003906250000000
   0.1875000000000000   -0.0625000000000000   -0.1875000000000000       0.003906250000000
   0.1875000000000000   -0.0625000000000000   -0.3125000000000000       0.003906250000000
   0.1875000000000000   -0.0625000000000000   -0.4375000000000000       0.003906250000000
   0.1875000000000000   -0.1875000000000000    0.4375000000000000       0.003906250000000
   0.1875000000000000   -0.1875000000000000    0.3125000000000000       0.003906250000000
   0.1875000000000000   -0.1875000000000000    0.1875000000000000       0.003906250000000
   0.1875000000000000   -0.1875000000000000    0.0625000000000000       0.003906250000000
   0.1875000000000000   -0.1875000000000000   -0.0625000000000000       0.003906250000000
   0.1875000000000000   -0.1875000000000000   -0.1875000000000000       0.003906250000000
   0.1875000000000000   -0.1875000000000000   -0.3125000000000000       0.003906250000000
   0.1875000000000000   -0.1875000000000000   -0.4375000000000000       0.003906250000000
   0.1875000000000000   -0.3125000000000000    0.4375000000000000       0.003906250000000
   0.1875000000000000   -0.3125000000000000    0.3125000000000000       0.003906250000000
   0.1875000000000000   -0.3125000000000000    0.1875000000000000       0.003906250000000
   0.1875000000000000   -0.3125000000000000    0.0625000000000000       0.003906250000000
   0.1875000000000000   -0.3125000000000000   -0.0625000000000000       0.003906250000000
   0.1875000000000000   -0.3125000000000000   -0.1875000000000000       0.003906250000000
   0.1875000000000000   -0.3125000000000000   -0.3125000000000000       0.003906250000000
   0.1875000000000000   -0.3125000000000000   -0.4375000000000000       0.003906250000000
   0.1875000000000000   -0.4375000000000000    0.4375000000000000       0.003906250000000
   0.1875000000000000   -0.4375000000000000    0.3125000000000000       0.003906250000000
   0.1875000000000000   -0.4375000000000000    0.1875000000000000       0.003906250000000
   0.1875000000000000   -0.4375000000000000    0.0625000000000000       0.003906250000000
   0.1875000000000000   -0.4375000000000000   -0.0625000000000000       0.003906250000000
   0.1875000000000000   -0.4375000000000000   -0.1875000000000000       0.003906250000000
   0.1875000000000000   -0.4375000000000000   -0.3125000000000000       0.003906250000000
   0.1875000000000000   -0.4375000000000000   -0.4375000000000000       0.003906250000000
   0.0625000000000000    0.4375000000000000    0.4375000000000000       0.003906250000000
   0.0625000000000000    0.4375000000000000    0.3125000000000000       0.003906250000000
   0.0625000000000000    0.4375000000000000    0.1875000000000000       0.003906250000000
   0.0625000000000000    0.4375000000000000    0.0625000000000000       0.003906250000000
   0.0625000000000000    0.4375000000000000   -0.0625000000000000       0.003906250000000
   0.0625000000000000    0.4375000000000000   -0.1875000000000000       0.003906250000000
   0.0625000000000000    0.4375000000000000   -0.3125000000000000       0.003906250000000
   0.0625000000000000    0.4375000000000000   -0.4375000000000000       0.003906250000000
   0.0625000000000000    0.3125000000000000    0.4375000000000000       0.003906250000000
   0.0625000000000000    0.3125000000000000    0.3125000000000000       0.003906250000000
   0.0625000000000000    0.3125000000000000    0.1875000000000000       0.003906250000000
   0.0625000000000000    0.3125000000000000    0.0625000000000000       0.003906250000000
   0.0625000000000000    0.3125000000000000   -0.0625000000000000       0.003906250000000
   0.0625000000000000    0.3125000000000000   -0.1875000000000000       0.003906250000000
   0.0625000000000000    0.3125000000000000   -0.3125000000000000       0.003906250000000
   0.0625000000000000    0.3125000000000000   -0.4375000000000000       0.003906250000000
   0.0625000000000000    0.1875000000000000    0.4375000000000000       0.003906250000000
   0.0625000000000000    0.1875000000000000    0.3125000000000000       0.003906250000000
   0.0625000000000000    0.1875000000000000    0.1875000000000000       0.003906250000000
   0.0625000000000000    0.1875000000000000    0.0625000000000000       0.003906250000000
   0.0625000000000000    0.1875000000000000   -0.0625000000000000       0.003906250000000
   0.0625000000000000    0.1875000000000000   -0.1875000000000000       0.003906250000000
   0.0625000000000000    0.1875000000000000   -0.3125000000000000       0.003906250000000
   0.0625000000000000    0.1875000000000000   -0.4375000000000000       0.003906250000000
   0.0625000000000000    0.0625000000000000    0.4375000000000000       0.003906250000000
   0.0625000000000000    0.0625000000000000    0.3125000000000000       0.003906250000000
   0.0625000000000000    0.0625000000000000    0.1875000000000000       0.003906250000000
   0.0625000000000000    0.0625000000000000    0.0625000000000000       0.003906250000000
   0.0625000000000000    0.0625000000000000   -0.0625000000000000       0.003906250000000
   0.0625000000000000    0.0625000000000000   -0.1875000000000000       0.003906250000000
   0.0625000000000000    0.0625000000000000   -0.3125000000000000       0.003906250000000
   0.0625000000000000    0.0625000000000000   -0.4375000000000000       0.003906250000000
   0.0625000000000000   -0.0625000000000000    0.4375000000000000       0.003906250000000
   0.0625000000000000   -0.0625000000000000    0.3125000000000000       0.003906250000000
   0.0625000000000000   -0.0625000000000000    0.1875000000000000       0.003906250000000
   0.0625000000000000   -0.0625000000000000    0.0625000000000000       0.003906250000000
   0.0625000000000000   -0.0625000000000000   -0.0625000000000000       0.003906250000000
   0.0625000000000000   -0.0625000000000000   -0.1875000000000000       0.003906250000000
   0.0625000000000000   -0.0625000000000000   -0.3125000000000000       0.003906250000000
   0.0625000000000000   -0.0625000000000000   -0.4375000000000000       0.003906250000000
   0.0625000000000000   -0.1875000000000000    0.4375000000000000       0.003906250000000
   0.0625000000000000   -0.1875000000000000    0.3125000000000000       0.003906250000000
   0.0625000000000000   -0.1875000000000000    0.1875000000000000       0.003906250000000
   0.0625000000000000   -0.1875000000000000    0.0625000000000000       0.003906250000000
   0.0625000000000000   -0.1875000000000000   -0.0625000000000000       0.003906250000000
   0.0625000000000000   -0.1875000000000000   -0.1875000000000000       0.003906250000000
   0.0625000000000000   -0.1875000000000000   -0.3125000000000000       0.003906250000000
   0.0625000000000000   -0.1875000000000000   -0.4375000000000000       0.003906250000000
   0.0625000000000000   -0.3125000000000000    0.4375000000000000       0.003906250000000
   0.0625000000000000   -0.3125000000000000    0.3125000000000000       0.003906250000000
   0.0625000000000000   -0.3125000000000000    0.1875000000000000       0.003906250000000
   0.0625000000000000   -0.3125000000000000    0.0625000000000000       0.003906250000000
   0.0625000000000000   -0.3125000000000000   -0.0625000000000000       0.003906250000000
   0.0625000000000000   -0.3125000000000000   -0.1875000000000000       0.003906250000000
   0.0625000000000000   -0.3125000000000000   -0.3125000000000000       0.003906250000000
   0.0625000000000000   -0.3125000000000000   -0.4375000000000000       0.003906250000000
   0.0625000000000000   -0.4375000000000000    0.4375000000000000       0.003906250000000
   0.0625000000000000   -0.4375000000000000    0.3125000000000000       0.003906250000000
   0.0625000000000000   -0.4375000000000000    0.1875000000000000       0.003906250000000
   0.0625000000000000   -0.4375000000000000    0.0625000000000000       0.003906250000000
   0.0625000000000000   -0.4375000000000000   -0.0625000000000000       0.003906250000000
   0.0625000000000000   -0.4375000000000000   -0.1875000000000000       0.003906250000000
   0.0625000000000000   -0.4375000000000000   -0.3125000000000000       0.003906250000000
   0.0625000000000000   -0.4375000000000000   -0.4375000000000000       0.003906250000000
%ENDBLOCK KPOINTS_LIST

FIX_ALL_CELL : true

FIX_COM : false
%BLOCK IONIC_CONSTRAINTS
%ENDBLOCK IONIC_CONSTRAINTS

%BLOCK EXTERNAL_EFIELD
    0.0000000000     0.0000000000     0.0000000000 
%ENDBLOCK EXTERNAL_EFIELD

%BLOCK EXTERNAL_PRESSURE
    0.0000000000    0.0000000000    0.0000000000
                    0.0000000000    0.0000000000
                                    0.0000000000
%ENDBLOCK EXTERNAL_PRESSURE

%BLOCK SPECIES_MASS
      Si     28.0849990845
%ENDBLOCK SPECIES_MASS

%BLOCK SPECIES_POT
      Si  Si_00PBE.usp
%ENDBLOCK SPECIES_POT

%BLOCK SPECIES_LCAO_STATES
      Si         2
%ENDBLOCK SPECIES_LCAO_STATES

