Si                                      
   1.00000000000000     
     5.4669454405255413    0.0000000000000000    0.0000000000000000
     0.0000000000000000    5.4669449631412208    0.0000000000000000
     0.0000000000000000    0.0000000000000000    5.4669454405255413
   Si
     8
Direct
  0.0000000000000000  0.0000000000000000  0.0000000000000000
  0.0000000000000000  0.5000000000000000  0.5000000000000000
  0.5000000000000000  0.0000000000000000  0.5000000000000000
  0.5000000000000000  0.5000000000000000  0.0000000000000000
  0.7499999560000035  0.2500000000000000  0.7499999560000035
  0.2500000000000000  0.2500000000000000  0.2500000000000000
  0.2500000000000000  0.7500000220000018  0.7499999560000035
  0.7499999560000035  0.7500000220000018  0.2500000000000000
 
  0.00000000E+00  0.00000000E+00  0.00000000E+00
  0.00000000E+00  0.00000000E+00  0.00000000E+00
  0.00000000E+00  0.00000000E+00  0.00000000E+00
  0.00000000E+00  0.00000000E+00  0.00000000E+00
  0.00000000E+00  0.00000000E+00  0.00000000E+00
  0.00000000E+00  0.00000000E+00  0.00000000E+00
  0.00000000E+00  0.00000000E+00  0.00000000E+00
  0.00000000E+00  0.00000000E+00  0.00000000E+00
