C                                       
   1.00000000000000     
     3.5730202791088352   -0.0000000003504923    0.0000000001235764
    -0.0000000000006398    3.5730202793628121   -0.0000000011646832
     0.0000000000002256   -0.0000000000021261    3.5730202789914323
   C 
     8
Direct
  0.0000000000442952  0.9999999999950973  0.9999999999322782
  0.0000000000520259  0.5000000000141469  0.5000000000422133
  0.5000000000412328  0.0000000000395133  0.5000000000258780
  0.5000000000471729  0.5000000000063523  0.9999999999522373
  0.7499999999682885  0.2500000000045759  0.7500000000053575
  0.2499999999306795  0.2499999999891926  0.2500000000191349
  0.2499999999785203  0.7499999999886100  0.7499999999968736
  0.7499999999377849  0.7499999999625047  0.2500000000260201
 
  0.00000000E+00  0.00000000E+00  0.00000000E+00
  0.00000000E+00  0.00000000E+00  0.00000000E+00
  0.00000000E+00  0.00000000E+00  0.00000000E+00
  0.00000000E+00  0.00000000E+00  0.00000000E+00
  0.00000000E+00  0.00000000E+00  0.00000000E+00
  0.00000000E+00  0.00000000E+00  0.00000000E+00
  0.00000000E+00  0.00000000E+00  0.00000000E+00
  0.00000000E+00  0.00000000E+00  0.00000000E+00
