%BLOCK LATTICE_CART
       3.566448855752879      -0.000000000349209       0.000000000123124
       0.000000000000000       3.566448856005465      -0.000000001160419
       0.000000000000000      -0.000000000000000       3.566448855636119
%ENDBLOCK LATTICE_CART

%BLOCK POSITIONS_FRAC
  C   0.0000000000442941   -0.0000000000048994   -0.0000000000677210
  C   0.0000000000520289    0.5000000000141451    0.5000000000422120
  C   0.5000000000412321    0.0000000000395142    0.5000000000258796
  C   0.5000000000471726    0.5000000000063549   -0.0000000000477638
  C   0.7499999999682903    0.2500000000045785    0.7500000000053602
  C   0.2499999999306801    0.2499999999891895    0.2500000000191362
  C   0.2499999999785171    0.7499999999886094    0.7499999999968731
  C   0.7499999999377843    0.7499999999625067    0.2500000000260234
%ENDBLOCK POSITIONS_FRAC

%BLOCK KPOINTS_LIST
   0.4583333333333333    0.4583333333333333    0.4583333333333333       0.001157407407407
   0.4583333333333333    0.4583333333333333    0.3750000000000001       0.001157407407407
   0.4583333333333333    0.4583333333333333    0.2916666666666667       0.001157407407407
   0.4583333333333333    0.4583333333333333    0.2083333333333333       0.001157407407407
   0.4583333333333333    0.4583333333333333    0.1250000000000001       0.001157407407407
   0.4583333333333333    0.4583333333333333    0.0416666666666667       0.001157407407407
   0.4583333333333333    0.4583333333333333   -0.0416666666666666       0.001157407407407
   0.4583333333333333    0.4583333333333333   -0.1250000000000000       0.001157407407407
   0.4583333333333333    0.4583333333333333   -0.2083333333333333       0.001157407407407
   0.4583333333333333    0.4583333333333333   -0.2916666666666666       0.001157407407407
   0.4583333333333333    0.4583333333333333   -0.3750000000000000       0.001157407407407
   0.4583333333333333    0.4583333333333333   -0.4583333333333333       0.001157407407407
   0.4583333333333333    0.3750000000000001    0.4583333333333333       0.001157407407407
   0.4583333333333333    0.3750000000000001    0.3750000000000001       0.001157407407407
   0.4583333333333333    0.3750000000000001    0.2916666666666667       0.001157407407407
   0.4583333333333333    0.3750000000000001    0.2083333333333333       0.001157407407407
   0.4583333333333333    0.3750000000000001    0.1250000000000001       0.001157407407407
   0.4583333333333333    0.3750000000000001    0.0416666666666667       0.001157407407407
   0.4583333333333333    0.3750000000000001   -0.0416666666666666       0.001157407407407
   0.4583333333333333    0.3750000000000001   -0.1250000000000000       0.001157407407407
   0.4583333333333333    0.3750000000000001   -0.2083333333333333       0.001157407407407
   0.4583333333333333    0.3750000000000001   -0.2916666666666666       0.001157407407407
   0.4583333333333333    0.3750000000000001   -0.3750000000000000       0.001157407407407
   0.4583333333333333    0.3750000000000001   -0.4583333333333333       0.001157407407407
   0.4583333333333333    0.2916666666666667    0.4583333333333333       0.001157407407407
   0.4583333333333333    0.2916666666666667    0.3750000000000001       0.001157407407407
   0.4583333333333333    0.2916666666666667    0.2916666666666667       0.001157407407407
   0.4583333333333333    0.2916666666666667    0.2083333333333333       0.001157407407407
   0.4583333333333333    0.2916666666666667    0.1250000000000001       0.001157407407407
   0.4583333333333333    0.2916666666666667    0.0416666666666667       0.001157407407407
   0.4583333333333333    0.2916666666666667   -0.0416666666666666       0.001157407407407
   0.4583333333333333    0.2916666666666667   -0.1250000000000000       0.001157407407407
   0.4583333333333333    0.2916666666666667   -0.2083333333333333       0.001157407407407
   0.4583333333333333    0.2916666666666667   -0.2916666666666666       0.001157407407407
   0.4583333333333333    0.2916666666666667   -0.3750000000000000       0.001157407407407
   0.4583333333333333    0.2916666666666667   -0.4583333333333333       0.001157407407407
   0.4583333333333333    0.2083333333333333    0.4583333333333333       0.001157407407407
   0.4583333333333333    0.2083333333333333    0.3750000000000001       0.001157407407407
   0.4583333333333333    0.2083333333333333    0.2916666666666667       0.001157407407407
   0.4583333333333333    0.2083333333333333    0.2083333333333333       0.001157407407407
   0.4583333333333333    0.2083333333333333    0.1250000000000001       0.001157407407407
   0.4583333333333333    0.2083333333333333    0.0416666666666667       0.001157407407407
   0.4583333333333333    0.2083333333333333   -0.0416666666666666       0.001157407407407
   0.4583333333333333    0.2083333333333333   -0.1250000000000000       0.001157407407407
   0.4583333333333333    0.2083333333333333   -0.2083333333333333       0.001157407407407
   0.4583333333333333    0.2083333333333333   -0.2916666666666666       0.001157407407407
   0.4583333333333333    0.2083333333333333   -0.3750000000000000       0.001157407407407
   0.4583333333333333    0.2083333333333333   -0.4583333333333333       0.001157407407407
   0.4583333333333333    0.1250000000000001    0.4583333333333333       0.001157407407407
   0.4583333333333333    0.1250000000000001    0.3750000000000001       0.001157407407407
   0.4583333333333333    0.1250000000000001    0.2916666666666667       0.001157407407407
   0.4583333333333333    0.1250000000000001    0.2083333333333333       0.001157407407407
   0.4583333333333333    0.1250000000000001    0.1250000000000001       0.001157407407407
   0.4583333333333333    0.1250000000000001    0.0416666666666667       0.001157407407407
   0.4583333333333333    0.1250000000000001   -0.0416666666666666       0.001157407407407
   0.4583333333333333    0.1250000000000001   -0.1250000000000000       0.001157407407407
   0.4583333333333333    0.1250000000000001   -0.2083333333333333       0.001157407407407
   0.4583333333333333    0.1250000000000001   -0.2916666666666666       0.001157407407407
   0.4583333333333333    0.1250000000000001   -0.3750000000000000       0.001157407407407
   0.4583333333333333    0.1250000000000001   -0.4583333333333333       0.001157407407407
   0.4583333333333333    0.0416666666666667    0.4583333333333333       0.001157407407407
   0.4583333333333333    0.0416666666666667    0.3750000000000001       0.001157407407407
   0.4583333333333333    0.0416666666666667    0.2916666666666667       0.001157407407407
   0.4583333333333333    0.0416666666666667    0.2083333333333333       0.001157407407407
   0.4583333333333333    0.0416666666666667    0.1250000000000001       0.001157407407407
   0.4583333333333333    0.0416666666666667    0.0416666666666667       0.001157407407407
   0.4583333333333333    0.0416666666666667   -0.0416666666666666       0.001157407407407
   0.4583333333333333    0.0416666666666667   -0.1250000000000000       0.001157407407407
   0.4583333333333333    0.0416666666666667   -0.2083333333333333       0.001157407407407
   0.4583333333333333    0.0416666666666667   -0.2916666666666666       0.001157407407407
   0.4583333333333333    0.0416666666666667   -0.3750000000000000       0.001157407407407
   0.4583333333333333    0.0416666666666667   -0.4583333333333333       0.001157407407407
   0.4583333333333333   -0.0416666666666666    0.4583333333333333       0.001157407407407
   0.4583333333333333   -0.0416666666666666    0.3750000000000001       0.001157407407407
   0.4583333333333333   -0.0416666666666666    0.2916666666666667       0.001157407407407
   0.4583333333333333   -0.0416666666666666    0.2083333333333333       0.001157407407407
   0.4583333333333333   -0.0416666666666666    0.1250000000000001       0.001157407407407
   0.4583333333333333   -0.0416666666666666    0.0416666666666667       0.001157407407407
   0.4583333333333333   -0.0416666666666666   -0.0416666666666666       0.001157407407407
   0.4583333333333333   -0.0416666666666666   -0.1250000000000000       0.001157407407407
   0.4583333333333333   -0.0416666666666666   -0.2083333333333333       0.001157407407407
   0.4583333333333333   -0.0416666666666666   -0.2916666666666666       0.001157407407407
   0.4583333333333333   -0.0416666666666666   -0.3750000000000000       0.001157407407407
   0.4583333333333333   -0.0416666666666666   -0.4583333333333333       0.001157407407407
   0.4583333333333333   -0.1250000000000000    0.4583333333333333       0.001157407407407
   0.4583333333333333   -0.1250000000000000    0.3750000000000001       0.001157407407407
   0.4583333333333333   -0.1250000000000000    0.2916666666666667       0.001157407407407
   0.4583333333333333   -0.1250000000000000    0.2083333333333333       0.001157407407407
   0.4583333333333333   -0.1250000000000000    0.1250000000000001       0.001157407407407
   0.4583333333333333   -0.1250000000000000    0.0416666666666667       0.001157407407407
   0.4583333333333333   -0.1250000000000000   -0.0416666666666666       0.001157407407407
   0.4583333333333333   -0.1250000000000000   -0.1250000000000000       0.001157407407407
   0.4583333333333333   -0.1250000000000000   -0.2083333333333333       0.001157407407407
   0.4583333333333333   -0.1250000000000000   -0.2916666666666666       0.001157407407407
   0.4583333333333333   -0.1250000000000000   -0.3750000000000000       0.001157407407407
   0.4583333333333333   -0.1250000000000000   -0.4583333333333333       0.001157407407407
   0.4583333333333333   -0.2083333333333333    0.4583333333333333       0.001157407407407
   0.4583333333333333   -0.2083333333333333    0.3750000000000001       0.001157407407407
   0.4583333333333333   -0.2083333333333333    0.2916666666666667       0.001157407407407
   0.4583333333333333   -0.2083333333333333    0.2083333333333333       0.001157407407407
   0.4583333333333333   -0.2083333333333333    0.1250000000000001       0.001157407407407
   0.4583333333333333   -0.2083333333333333    0.0416666666666667       0.001157407407407
   0.4583333333333333   -0.2083333333333333   -0.0416666666666666       0.001157407407407
   0.4583333333333333   -0.2083333333333333   -0.1250000000000000       0.001157407407407
   0.4583333333333333   -0.2083333333333333   -0.2083333333333333       0.001157407407407
   0.4583333333333333   -0.2083333333333333   -0.2916666666666666       0.001157407407407
   0.4583333333333333   -0.2083333333333333   -0.3750000000000000       0.001157407407407
   0.4583333333333333   -0.2083333333333333   -0.4583333333333333       0.001157407407407
   0.4583333333333333   -0.2916666666666666    0.4583333333333333       0.001157407407407
   0.4583333333333333   -0.2916666666666666    0.3750000000000001       0.001157407407407
   0.4583333333333333   -0.2916666666666666    0.2916666666666667       0.001157407407407
   0.4583333333333333   -0.2916666666666666    0.2083333333333333       0.001157407407407
   0.4583333333333333   -0.2916666666666666    0.1250000000000001       0.001157407407407
   0.4583333333333333   -0.2916666666666666    0.0416666666666667       0.001157407407407
   0.4583333333333333   -0.2916666666666666   -0.0416666666666666       0.001157407407407
   0.4583333333333333   -0.2916666666666666   -0.1250000000000000       0.001157407407407
   0.4583333333333333   -0.2916666666666666   -0.2083333333333333       0.001157407407407
   0.4583333333333333   -0.2916666666666666   -0.2916666666666666       0.001157407407407
   0.4583333333333333   -0.2916666666666666   -0.3750000000000000       0.001157407407407
   0.4583333333333333   -0.2916666666666666   -0.4583333333333333       0.001157407407407
   0.4583333333333333   -0.3750000000000000    0.4583333333333333       0.001157407407407
   0.4583333333333333   -0.3750000000000000    0.3750000000000001       0.001157407407407
   0.4583333333333333   -0.3750000000000000    0.2916666666666667       0.001157407407407
   0.4583333333333333   -0.3750000000000000    0.2083333333333333       0.001157407407407
   0.4583333333333333   -0.3750000000000000    0.1250000000000001       0.001157407407407
   0.4583333333333333   -0.3750000000000000    0.0416666666666667       0.001157407407407
   0.4583333333333333   -0.3750000000000000   -0.0416666666666666       0.001157407407407
   0.4583333333333333   -0.3750000000000000   -0.1250000000000000       0.001157407407407
   0.4583333333333333   -0.3750000000000000   -0.2083333333333333       0.001157407407407
   0.4583333333333333   -0.3750000000000000   -0.2916666666666666       0.001157407407407
   0.4583333333333333   -0.3750000000000000   -0.3750000000000000       0.001157407407407
   0.4583333333333333   -0.3750000000000000   -0.4583333333333333       0.001157407407407
   0.4583333333333333   -0.4583333333333333    0.4583333333333333       0.001157407407407
   0.4583333333333333   -0.4583333333333333    0.3750000000000001       0.001157407407407
   0.4583333333333333   -0.4583333333333333    0.2916666666666667       0.001157407407407
   0.4583333333333333   -0.4583333333333333    0.2083333333333333       0.001157407407407
   0.4583333333333333   -0.4583333333333333    0.1250000000000001       0.001157407407407
   0.4583333333333333   -0.4583333333333333    0.0416666666666667       0.001157407407407
   0.4583333333333333   -0.4583333333333333   -0.0416666666666666       0.001157407407407
   0.4583333333333333   -0.4583333333333333   -0.1250000000000000       0.001157407407407
   0.4583333333333333   -0.4583333333333333   -0.2083333333333333       0.001157407407407
   0.4583333333333333   -0.4583333333333333   -0.2916666666666666       0.001157407407407
   0.4583333333333333   -0.4583333333333333   -0.3750000000000000       0.001157407407407
   0.4583333333333333   -0.4583333333333333   -0.4583333333333333       0.001157407407407
   0.3750000000000001    0.4583333333333333    0.4583333333333333       0.001157407407407
   0.3750000000000001    0.4583333333333333    0.3750000000000001       0.001157407407407
   0.3750000000000001    0.4583333333333333    0.2916666666666667       0.001157407407407
   0.3750000000000001    0.4583333333333333    0.2083333333333333       0.001157407407407
   0.3750000000000001    0.4583333333333333    0.1250000000000001       0.001157407407407
   0.3750000000000001    0.4583333333333333    0.0416666666666667       0.001157407407407
   0.3750000000000001    0.4583333333333333   -0.0416666666666666       0.001157407407407
   0.3750000000000001    0.4583333333333333   -0.1250000000000000       0.001157407407407
   0.3750000000000001    0.4583333333333333   -0.2083333333333333       0.001157407407407
   0.3750000000000001    0.4583333333333333   -0.2916666666666666       0.001157407407407
   0.3750000000000001    0.4583333333333333   -0.3750000000000000       0.001157407407407
   0.3750000000000001    0.4583333333333333   -0.4583333333333333       0.001157407407407
   0.3750000000000001    0.3750000000000001    0.4583333333333333       0.001157407407407
   0.3750000000000001    0.3750000000000001    0.3750000000000001       0.001157407407407
   0.3750000000000001    0.3750000000000001    0.2916666666666667       0.001157407407407
   0.3750000000000001    0.3750000000000001    0.2083333333333333       0.001157407407407
   0.3750000000000001    0.3750000000000001    0.1250000000000001       0.001157407407407
   0.3750000000000001    0.3750000000000001    0.0416666666666667       0.001157407407407
   0.3750000000000001    0.3750000000000001   -0.0416666666666666       0.001157407407407
   0.3750000000000001    0.3750000000000001   -0.1250000000000000       0.001157407407407
   0.3750000000000001    0.3750000000000001   -0.2083333333333333       0.001157407407407
   0.3750000000000001    0.3750000000000001   -0.2916666666666666       0.001157407407407
   0.3750000000000001    0.3750000000000001   -0.3750000000000000       0.001157407407407
   0.3750000000000001    0.3750000000000001   -0.4583333333333333       0.001157407407407
   0.3750000000000001    0.2916666666666667    0.4583333333333333       0.001157407407407
   0.3750000000000001    0.2916666666666667    0.3750000000000001       0.001157407407407
   0.3750000000000001    0.2916666666666667    0.2916666666666667       0.001157407407407
   0.3750000000000001    0.2916666666666667    0.2083333333333333       0.001157407407407
   0.3750000000000001    0.2916666666666667    0.1250000000000001       0.001157407407407
   0.3750000000000001    0.2916666666666667    0.0416666666666667       0.001157407407407
   0.3750000000000001    0.2916666666666667   -0.0416666666666666       0.001157407407407
   0.3750000000000001    0.2916666666666667   -0.1250000000000000       0.001157407407407
   0.3750000000000001    0.2916666666666667   -0.2083333333333333       0.001157407407407
   0.3750000000000001    0.2916666666666667   -0.2916666666666666       0.001157407407407
   0.3750000000000001    0.2916666666666667   -0.3750000000000000       0.001157407407407
   0.3750000000000001    0.2916666666666667   -0.4583333333333333       0.001157407407407
   0.3750000000000001    0.2083333333333333    0.4583333333333333       0.001157407407407
   0.3750000000000001    0.2083333333333333    0.3750000000000001       0.001157407407407
   0.3750000000000001    0.2083333333333333    0.2916666666666667       0.001157407407407
   0.3750000000000001    0.2083333333333333    0.2083333333333333       0.001157407407407
   0.3750000000000001    0.2083333333333333    0.1250000000000001       0.001157407407407
   0.3750000000000001    0.2083333333333333    0.0416666666666667       0.001157407407407
   0.3750000000000001    0.2083333333333333   -0.0416666666666666       0.001157407407407
   0.3750000000000001    0.2083333333333333   -0.1250000000000000       0.001157407407407
   0.3750000000000001    0.2083333333333333   -0.2083333333333333       0.001157407407407
   0.3750000000000001    0.2083333333333333   -0.2916666666666666       0.001157407407407
   0.3750000000000001    0.2083333333333333   -0.3750000000000000       0.001157407407407
   0.3750000000000001    0.2083333333333333   -0.4583333333333333       0.001157407407407
   0.3750000000000001    0.1250000000000001    0.4583333333333333       0.001157407407407
   0.3750000000000001    0.1250000000000001    0.3750000000000001       0.001157407407407
   0.3750000000000001    0.1250000000000001    0.2916666666666667       0.001157407407407
   0.3750000000000001    0.1250000000000001    0.2083333333333333       0.001157407407407
   0.3750000000000001    0.1250000000000001    0.1250000000000001       0.001157407407407
   0.3750000000000001    0.1250000000000001    0.0416666666666667       0.001157407407407
   0.3750000000000001    0.1250000000000001   -0.0416666666666666       0.001157407407407
   0.3750000000000001    0.1250000000000001   -0.1250000000000000       0.001157407407407
   0.3750000000000001    0.1250000000000001   -0.2083333333333333       0.001157407407407
   0.3750000000000001    0.1250000000000001   -0.2916666666666666       0.001157407407407
   0.3750000000000001    0.1250000000000001   -0.3750000000000000       0.001157407407407
   0.3750000000000001    0.1250000000000001   -0.4583333333333333       0.001157407407407
   0.3750000000000001    0.0416666666666667    0.4583333333333333       0.001157407407407
   0.3750000000000001    0.0416666666666667    0.3750000000000001       0.001157407407407
   0.3750000000000001    0.0416666666666667    0.2916666666666667       0.001157407407407
   0.3750000000000001    0.0416666666666667    0.2083333333333333       0.001157407407407
   0.3750000000000001    0.0416666666666667    0.1250000000000001       0.001157407407407
   0.3750000000000001    0.0416666666666667    0.0416666666666667       0.001157407407407
   0.3750000000000001    0.0416666666666667   -0.0416666666666666       0.001157407407407
   0.3750000000000001    0.0416666666666667   -0.1250000000000000       0.001157407407407
   0.3750000000000001    0.0416666666666667   -0.2083333333333333       0.001157407407407
   0.3750000000000001    0.0416666666666667   -0.2916666666666666       0.001157407407407
   0.3750000000000001    0.0416666666666667   -0.3750000000000000       0.001157407407407
   0.3750000000000001    0.0416666666666667   -0.4583333333333333       0.001157407407407
   0.3750000000000001   -0.0416666666666666    0.4583333333333333       0.001157407407407
   0.3750000000000001   -0.0416666666666666    0.3750000000000001       0.001157407407407
   0.3750000000000001   -0.0416666666666666    0.2916666666666667       0.001157407407407
   0.3750000000000001   -0.0416666666666666    0.2083333333333333       0.001157407407407
   0.3750000000000001   -0.0416666666666666    0.1250000000000001       0.001157407407407
   0.3750000000000001   -0.0416666666666666    0.0416666666666667       0.001157407407407
   0.3750000000000001   -0.0416666666666666   -0.0416666666666666       0.001157407407407
   0.3750000000000001   -0.0416666666666666   -0.1250000000000000       0.001157407407407
   0.3750000000000001   -0.0416666666666666   -0.2083333333333333       0.001157407407407
   0.3750000000000001   -0.0416666666666666   -0.2916666666666666       0.001157407407407
   0.3750000000000001   -0.0416666666666666   -0.3750000000000000       0.001157407407407
   0.3750000000000001   -0.0416666666666666   -0.4583333333333333       0.001157407407407
   0.3750000000000001   -0.1250000000000000    0.4583333333333333       0.001157407407407
   0.3750000000000001   -0.1250000000000000    0.3750000000000001       0.001157407407407
   0.3750000000000001   -0.1250000000000000    0.2916666666666667       0.001157407407407
   0.3750000000000001   -0.1250000000000000    0.2083333333333333       0.001157407407407
   0.3750000000000001   -0.1250000000000000    0.1250000000000001       0.001157407407407
   0.3750000000000001   -0.1250000000000000    0.0416666666666667       0.001157407407407
   0.3750000000000001   -0.1250000000000000   -0.0416666666666666       0.001157407407407
   0.3750000000000001   -0.1250000000000000   -0.1250000000000000       0.001157407407407
   0.3750000000000001   -0.1250000000000000   -0.2083333333333333       0.001157407407407
   0.3750000000000001   -0.1250000000000000   -0.2916666666666666       0.001157407407407
   0.3750000000000001   -0.1250000000000000   -0.3750000000000000       0.001157407407407
   0.3750000000000001   -0.1250000000000000   -0.4583333333333333       0.001157407407407
   0.3750000000000001   -0.2083333333333333    0.4583333333333333       0.001157407407407
   0.3750000000000001   -0.2083333333333333    0.3750000000000001       0.001157407407407
   0.3750000000000001   -0.2083333333333333    0.2916666666666667       0.001157407407407
   0.3750000000000001   -0.2083333333333333    0.2083333333333333       0.001157407407407
   0.3750000000000001   -0.2083333333333333    0.1250000000000001       0.001157407407407
   0.3750000000000001   -0.2083333333333333    0.0416666666666667       0.001157407407407
   0.3750000000000001   -0.2083333333333333   -0.0416666666666666       0.001157407407407
   0.3750000000000001   -0.2083333333333333   -0.1250000000000000       0.001157407407407
   0.3750000000000001   -0.2083333333333333   -0.2083333333333333       0.001157407407407
   0.3750000000000001   -0.2083333333333333   -0.2916666666666666       0.001157407407407
   0.3750000000000001   -0.2083333333333333   -0.3750000000000000       0.001157407407407
   0.3750000000000001   -0.2083333333333333   -0.4583333333333333       0.001157407407407
   0.3750000000000001   -0.2916666666666666    0.4583333333333333       0.001157407407407
   0.3750000000000001   -0.2916666666666666    0.3750000000000001       0.001157407407407
   0.3750000000000001   -0.2916666666666666    0.2916666666666667       0.001157407407407
   0.3750000000000001   -0.2916666666666666    0.2083333333333333       0.001157407407407
   0.3750000000000001   -0.2916666666666666    0.1250000000000001       0.001157407407407
   0.3750000000000001   -0.2916666666666666    0.0416666666666667       0.001157407407407
   0.3750000000000001   -0.2916666666666666   -0.0416666666666666       0.001157407407407
   0.3750000000000001   -0.2916666666666666   -0.1250000000000000       0.001157407407407
   0.3750000000000001   -0.2916666666666666   -0.2083333333333333       0.001157407407407
   0.3750000000000001   -0.2916666666666666   -0.2916666666666666       0.001157407407407
   0.3750000000000001   -0.2916666666666666   -0.3750000000000000       0.001157407407407
   0.3750000000000001   -0.2916666666666666   -0.4583333333333333       0.001157407407407
   0.3750000000000001   -0.3750000000000000    0.4583333333333333       0.001157407407407
   0.3750000000000001   -0.3750000000000000    0.3750000000000001       0.001157407407407
   0.3750000000000001   -0.3750000000000000    0.2916666666666667       0.001157407407407
   0.3750000000000001   -0.3750000000000000    0.2083333333333333       0.001157407407407
   0.3750000000000001   -0.3750000000000000    0.1250000000000001       0.001157407407407
   0.3750000000000001   -0.3750000000000000    0.0416666666666667       0.001157407407407
   0.3750000000000001   -0.3750000000000000   -0.0416666666666666       0.001157407407407
   0.3750000000000001   -0.3750000000000000   -0.1250000000000000       0.001157407407407
   0.3750000000000001   -0.3750000000000000   -0.2083333333333333       0.001157407407407
   0.3750000000000001   -0.3750000000000000   -0.2916666666666666       0.001157407407407
   0.3750000000000001   -0.3750000000000000   -0.3750000000000000       0.001157407407407
   0.3750000000000001   -0.3750000000000000   -0.4583333333333333       0.001157407407407
   0.3750000000000001   -0.4583333333333333    0.4583333333333333       0.001157407407407
   0.3750000000000001   -0.4583333333333333    0.3750000000000001       0.001157407407407
   0.3750000000000001   -0.4583333333333333    0.2916666666666667       0.001157407407407
   0.3750000000000001   -0.4583333333333333    0.2083333333333333       0.001157407407407
   0.3750000000000001   -0.4583333333333333    0.1250000000000001       0.001157407407407
   0.3750000000000001   -0.4583333333333333    0.0416666666666667       0.001157407407407
   0.3750000000000001   -0.4583333333333333   -0.0416666666666666       0.001157407407407
   0.3750000000000001   -0.4583333333333333   -0.1250000000000000       0.001157407407407
   0.3750000000000001   -0.4583333333333333   -0.2083333333333333       0.001157407407407
   0.3750000000000001   -0.4583333333333333   -0.2916666666666666       0.001157407407407
   0.3750000000000001   -0.4583333333333333   -0.3750000000000000       0.001157407407407
   0.3750000000000001   -0.4583333333333333   -0.4583333333333333       0.001157407407407
   0.2916666666666667    0.4583333333333333    0.4583333333333333       0.001157407407407
   0.2916666666666667    0.4583333333333333    0.3750000000000001       0.001157407407407
   0.2916666666666667    0.4583333333333333    0.2916666666666667       0.001157407407407
   0.2916666666666667    0.4583333333333333    0.2083333333333333       0.001157407407407
   0.2916666666666667    0.4583333333333333    0.1250000000000001       0.001157407407407
   0.2916666666666667    0.4583333333333333    0.0416666666666667       0.001157407407407
   0.2916666666666667    0.4583333333333333   -0.0416666666666666       0.001157407407407
   0.2916666666666667    0.4583333333333333   -0.1250000000000000       0.001157407407407
   0.2916666666666667    0.4583333333333333   -0.2083333333333333       0.001157407407407
   0.2916666666666667    0.4583333333333333   -0.2916666666666666       0.001157407407407
   0.2916666666666667    0.4583333333333333   -0.3750000000000000       0.001157407407407
   0.2916666666666667    0.4583333333333333   -0.4583333333333333       0.001157407407407
   0.2916666666666667    0.3750000000000001    0.4583333333333333       0.001157407407407
   0.2916666666666667    0.3750000000000001    0.3750000000000001       0.001157407407407
   0.2916666666666667    0.3750000000000001    0.2916666666666667       0.001157407407407
   0.2916666666666667    0.3750000000000001    0.2083333333333333       0.001157407407407
   0.2916666666666667    0.3750000000000001    0.1250000000000001       0.001157407407407
   0.2916666666666667    0.3750000000000001    0.0416666666666667       0.001157407407407
   0.2916666666666667    0.3750000000000001   -0.0416666666666666       0.001157407407407
   0.2916666666666667    0.3750000000000001   -0.1250000000000000       0.001157407407407
   0.2916666666666667    0.3750000000000001   -0.2083333333333333       0.001157407407407
   0.2916666666666667    0.3750000000000001   -0.2916666666666666       0.001157407407407
   0.2916666666666667    0.3750000000000001   -0.3750000000000000       0.001157407407407
   0.2916666666666667    0.3750000000000001   -0.4583333333333333       0.001157407407407
   0.2916666666666667    0.2916666666666667    0.4583333333333333       0.001157407407407
   0.2916666666666667    0.2916666666666667    0.3750000000000001       0.001157407407407
   0.2916666666666667    0.2916666666666667    0.2916666666666667       0.001157407407407
   0.2916666666666667    0.2916666666666667    0.2083333333333333       0.001157407407407
   0.2916666666666667    0.2916666666666667    0.1250000000000001       0.001157407407407
   0.2916666666666667    0.2916666666666667    0.0416666666666667       0.001157407407407
   0.2916666666666667    0.2916666666666667   -0.0416666666666666       0.001157407407407
   0.2916666666666667    0.2916666666666667   -0.1250000000000000       0.001157407407407
   0.2916666666666667    0.2916666666666667   -0.2083333333333333       0.001157407407407
   0.2916666666666667    0.2916666666666667   -0.2916666666666666       0.001157407407407
   0.2916666666666667    0.2916666666666667   -0.3750000000000000       0.001157407407407