%BLOCK LATTICE_CART
       2.768135694961307      -1.598197860232816       0.000000126914552
      -0.000000000000000       3.196374334546982      -0.000000022778853
      -0.000000000000000       0.000000000000000       5.245353499743001
%ENDBLOCK LATTICE_CART

%BLOCK POSITIONS_FRAC
 Mg   0.3333336731401630    0.6666665759201760    0.2500000437622330
 Mg   0.6666663268598371    0.3333334240798230    0.7499999562377669
%ENDBLOCK POSITIONS_FRAC

%BLOCK KPOINTS_LIST
   0.4705882352941176    0.4705882352941176    0.4444444444444444  7.689350249903883e-004
   0.4705882352941176    0.4705882352941176    0.3333333333333334  7.689350249903883e-004
   0.4705882352941176    0.4705882352941176    0.2222222222222222  7.689350249903883e-004
   0.4705882352941176    0.4705882352941176    0.1111111111111112  7.689350249903883e-004
   0.4705882352941176    0.4705882352941176    0.0000000000000000  7.689350249903883e-004
   0.4705882352941176    0.4705882352941176   -0.1111111111111111  7.689350249903883e-004
   0.4705882352941176    0.4705882352941176   -0.2222222222222222  7.689350249903883e-004
   0.4705882352941176    0.4705882352941176   -0.3333333333333333  7.689350249903883e-004
   0.4705882352941176    0.4705882352941176   -0.4444444444444444  7.689350249903883e-004
   0.4705882352941176    0.4117647058823529    0.4444444444444444  7.689350249903883e-004
   0.4705882352941176    0.4117647058823529    0.3333333333333334  7.689350249903883e-004
   0.4705882352941176    0.4117647058823529    0.2222222222222222  7.689350249903883e-004
   0.4705882352941176    0.4117647058823529    0.1111111111111112  7.689350249903883e-004
   0.4705882352941176    0.4117647058823529    0.0000000000000000  7.689350249903883e-004
   0.4705882352941176    0.4117647058823529   -0.1111111111111111  7.689350249903883e-004
   0.4705882352941176    0.4117647058823529   -0.2222222222222222  7.689350249903883e-004
   0.4705882352941176    0.4117647058823529   -0.3333333333333333  7.689350249903883e-004
   0.4705882352941176    0.4117647058823529   -0.4444444444444444  7.689350249903883e-004
   0.4705882352941176    0.3529411764705882    0.4444444444444444  7.689350249903883e-004
   0.4705882352941176    0.3529411764705882    0.3333333333333334  7.689350249903883e-004
   0.4705882352941176    0.3529411764705882    0.2222222222222222  7.689350249903883e-004
   0.4705882352941176    0.3529411764705882    0.1111111111111112  7.689350249903883e-004
   0.4705882352941176    0.3529411764705882    0.0000000000000000  7.689350249903883e-004
   0.4705882352941176    0.3529411764705882   -0.1111111111111111  7.689350249903883e-004
   0.4705882352941176    0.3529411764705882   -0.2222222222222222  7.689350249903883e-004
   0.4705882352941176    0.3529411764705882   -0.3333333333333333  7.689350249903883e-004
   0.4705882352941176    0.3529411764705882   -0.4444444444444444  7.689350249903883e-004
   0.4705882352941176    0.2941176470588235    0.4444444444444444  7.689350249903883e-004
   0.4705882352941176    0.2941176470588235    0.3333333333333334  7.689350249903883e-004
   0.4705882352941176    0.2941176470588235    0.2222222222222222  7.689350249903883e-004
   0.4705882352941176    0.2941176470588235    0.1111111111111112  7.689350249903883e-004
   0.4705882352941176    0.2941176470588235    0.0000000000000000  7.689350249903883e-004
   0.4705882352941176    0.2941176470588235   -0.1111111111111111  7.689350249903883e-004
   0.4705882352941176    0.2941176470588235   -0.2222222222222222  7.689350249903883e-004
   0.4705882352941176    0.2941176470588235   -0.3333333333333333  7.689350249903883e-004
   0.4705882352941176    0.2941176470588235   -0.4444444444444444  7.689350249903883e-004
   0.4705882352941176    0.2352941176470589    0.4444444444444444  7.689350249903883e-004
   0.4705882352941176    0.2352941176470589    0.3333333333333334  7.689350249903883e-004
   0.4705882352941176    0.2352941176470589    0.2222222222222222  7.689350249903883e-004
   0.4705882352941176    0.2352941176470589    0.1111111111111112  7.689350249903883e-004
   0.4705882352941176    0.2352941176470589    0.0000000000000000  7.689350249903883e-004
   0.4705882352941176    0.2352941176470589   -0.1111111111111111  7.689350249903883e-004
   0.4705882352941176    0.2352941176470589   -0.2222222222222222  7.689350249903883e-004
   0.4705882352941176    0.2352941176470589   -0.3333333333333333  7.689350249903883e-004
   0.4705882352941176    0.2352941176470589   -0.4444444444444444  7.689350249903883e-004
   0.4705882352941176    0.1764705882352942    0.4444444444444444  7.689350249903883e-004
   0.4705882352941176    0.1764705882352942    0.3333333333333334  7.689350249903883e-004
   0.4705882352941176    0.1764705882352942    0.2222222222222222  7.689350249903883e-004
   0.4705882352941176    0.1764705882352942    0.1111111111111112  7.689350249903883e-004
   0.4705882352941176    0.1764705882352942    0.0000000000000000  7.689350249903883e-004
   0.4705882352941176    0.1764705882352942   -0.1111111111111111  7.689350249903883e-004
   0.4705882352941176    0.1764705882352942   -0.2222222222222222  7.689350249903883e-004
   0.4705882352941176    0.1764705882352942   -0.3333333333333333  7.689350249903883e-004
   0.4705882352941176    0.1764705882352942   -0.4444444444444444  7.689350249903883e-004
   0.4705882352941176    0.1176470588235294    0.4444444444444444  7.689350249903883e-004
   0.4705882352941176    0.1176470588235294    0.3333333333333334  7.689350249903883e-004
   0.4705882352941176    0.1176470588235294    0.2222222222222222  7.689350249903883e-004
   0.4705882352941176    0.1176470588235294    0.1111111111111112  7.689350249903883e-004
   0.4705882352941176    0.1176470588235294    0.0000000000000000  7.689350249903883e-004
   0.4705882352941176    0.1176470588235294   -0.1111111111111111  7.689350249903883e-004
   0.4705882352941176    0.1176470588235294   -0.2222222222222222  7.689350249903883e-004
   0.4705882352941176    0.1176470588235294   -0.3333333333333333  7.689350249903883e-004
   0.4705882352941176    0.1176470588235294   -0.4444444444444444  7.689350249903883e-004
   0.4705882352941176    0.0588235294117647    0.4444444444444444  7.689350249903883e-004
   0.4705882352941176    0.0588235294117647    0.3333333333333334  7.689350249903883e-004
   0.4705882352941176    0.0588235294117647    0.2222222222222222  7.689350249903883e-004
   0.4705882352941176    0.0588235294117647    0.1111111111111112  7.689350249903883e-004
   0.4705882352941176    0.0588235294117647    0.0000000000000000  7.689350249903883e-004
   0.4705882352941176    0.0588235294117647   -0.1111111111111111  7.689350249903883e-004
   0.4705882352941176    0.0588235294117647   -0.2222222222222222  7.689350249903883e-004
   0.4705882352941176    0.0588235294117647   -0.3333333333333333  7.689350249903883e-004
   0.4705882352941176    0.0588235294117647   -0.4444444444444444  7.689350249903883e-004
   0.4705882352941176    0.0000000000000000    0.4444444444444444  7.689350249903883e-004
   0.4705882352941176    0.0000000000000000    0.3333333333333334  7.689350249903883e-004
   0.4705882352941176    0.0000000000000000    0.2222222222222222  7.689350249903883e-004
   0.4705882352941176    0.0000000000000000    0.1111111111111112  7.689350249903883e-004
   0.4705882352941176    0.0000000000000000    0.0000000000000000  7.689350249903883e-004
   0.4705882352941176    0.0000000000000000   -0.1111111111111111  7.689350249903883e-004
   0.4705882352941176    0.0000000000000000   -0.2222222222222222  7.689350249903883e-004
   0.4705882352941176    0.0000000000000000   -0.3333333333333333  7.689350249903883e-004
   0.4705882352941176    0.0000000000000000   -0.4444444444444444  7.689350249903883e-004
   0.4705882352941176   -0.0588235294117647    0.4444444444444444  7.689350249903883e-004
   0.4705882352941176   -0.0588235294117647    0.3333333333333334  7.689350249903883e-004
   0.4705882352941176   -0.0588235294117647    0.2222222222222222  7.689350249903883e-004
   0.4705882352941176   -0.0588235294117647    0.1111111111111112  7.689350249903883e-004
   0.4705882352941176   -0.0588235294117647    0.0000000000000000  7.689350249903883e-004
   0.4705882352941176   -0.0588235294117647   -0.1111111111111111  7.689350249903883e-004
   0.4705882352941176   -0.0588235294117647   -0.2222222222222222  7.689350249903883e-004
   0.4705882352941176   -0.0588235294117647   -0.3333333333333333  7.689350249903883e-004
   0.4705882352941176   -0.0588235294117647   -0.4444444444444444  7.689350249903883e-004
   0.4705882352941176   -0.1176470588235294    0.4444444444444444  7.689350249903883e-004
   0.4705882352941176   -0.1176470588235294    0.3333333333333334  7.689350249903883e-004
   0.4705882352941176   -0.1176470588235294    0.2222222222222222  7.689350249903883e-004
   0.4705882352941176   -0.1176470588235294    0.1111111111111112  7.689350249903883e-004
   0.4705882352941176   -0.1176470588235294    0.0000000000000000  7.689350249903883e-004
   0.4705882352941176   -0.1176470588235294   -0.1111111111111111  7.689350249903883e-004
   0.4705882352941176   -0.1176470588235294   -0.2222222222222222  7.689350249903883e-004
   0.4705882352941176   -0.1176470588235294   -0.3333333333333333  7.689350249903883e-004
   0.4705882352941176   -0.1176470588235294   -0.4444444444444444  7.689350249903883e-004
   0.4705882352941176   -0.1764705882352941    0.4444444444444444  7.689350249903883e-004
   0.4705882352941176   -0.1764705882352941    0.3333333333333334  7.689350249903883e-004
   0.4705882352941176   -0.1764705882352941    0.2222222222222222  7.689350249903883e-004
   0.4705882352941176   -0.1764705882352941    0.1111111111111112  7.689350249903883e-004
   0.4705882352941176   -0.1764705882352941    0.0000000000000000  7.689350249903883e-004
   0.4705882352941176   -0.1764705882352941   -0.1111111111111111  7.689350249903883e-004
   0.4705882352941176   -0.1764705882352941   -0.2222222222222222  7.689350249903883e-004
   0.4705882352941176   -0.1764705882352941   -0.3333333333333333  7.689350249903883e-004
   0.4705882352941176   -0.1764705882352941   -0.4444444444444444  7.689350249903883e-004
   0.4705882352941176   -0.2352941176470588    0.4444444444444444  7.689350249903883e-004
   0.4705882352941176   -0.2352941176470588    0.3333333333333334  7.689350249903883e-004
   0.4705882352941176   -0.2352941176470588    0.2222222222222222  7.689350249903883e-004
   0.4705882352941176   -0.2352941176470588    0.1111111111111112  7.689350249903883e-004
   0.4705882352941176   -0.2352941176470588    0.0000000000000000  7.689350249903883e-004
   0.4705882352941176   -0.2352941176470588   -0.1111111111111111  7.689350249903883e-004
   0.4705882352941176   -0.2352941176470588   -0.2222222222222222  7.689350249903883e-004
   0.4705882352941176   -0.2352941176470588   -0.3333333333333333  7.689350249903883e-004
   0.4705882352941176   -0.2352941176470588   -0.4444444444444444  7.689350249903883e-004
   0.4705882352941176   -0.2941176470588235    0.4444444444444444  7.689350249903883e-004
   0.4705882352941176   -0.2941176470588235    0.3333333333333334  7.689350249903883e-004
   0.4705882352941176   -0.2941176470588235    0.2222222222222222  7.689350249903883e-004
   0.4705882352941176   -0.2941176470588235    0.1111111111111112  7.689350249903883e-004
   0.4705882352941176   -0.2941176470588235    0.0000000000000000  7.689350249903883e-004
   0.4705882352941176   -0.2941176470588235   -0.1111111111111111  7.689350249903883e-004
   0.4705882352941176   -0.2941176470588235   -0.2222222222222222  7.689350249903883e-004
   0.4705882352941176   -0.2941176470588235   -0.3333333333333333  7.689350249903883e-004
   0.4705882352941176   -0.2941176470588235   -0.4444444444444444  7.689350249903883e-004
   0.4705882352941176   -0.3529411764705882    0.4444444444444444  7.689350249903883e-004
   0.4705882352941176   -0.3529411764705882    0.3333333333333334  7.689350249903883e-004
   0.4705882352941176   -0.3529411764705882    0.2222222222222222  7.689350249903883e-004
   0.4705882352941176   -0.3529411764705882    0.1111111111111112  7.689350249903883e-004
   0.4705882352941176   -0.3529411764705882    0.0000000000000000  7.689350249903883e-004
   0.4705882352941176   -0.3529411764705882   -0.1111111111111111  7.689350249903883e-004
   0.4705882352941176   -0.3529411764705882   -0.2222222222222222  7.689350249903883e-004
   0.4705882352941176   -0.3529411764705882   -0.3333333333333333  7.689350249903883e-004
   0.4705882352941176   -0.3529411764705882   -0.4444444444444444  7.689350249903883e-004
   0.4705882352941176   -0.4117647058823529    0.4444444444444444  7.689350249903883e-004
   0.4705882352941176   -0.4117647058823529    0.3333333333333334  7.689350249903883e-004
   0.4705882352941176   -0.4117647058823529    0.2222222222222222  7.689350249903883e-004
   0.4705882352941176   -0.4117647058823529    0.1111111111111112  7.689350249903883e-004
   0.4705882352941176   -0.4117647058823529    0.0000000000000000  7.689350249903883e-004
   0.4705882352941176   -0.4117647058823529   -0.1111111111111111  7.689350249903883e-004
   0.4705882352941176   -0.4117647058823529   -0.2222222222222222  7.689350249903883e-004
   0.4705882352941176   -0.4117647058823529   -0.3333333333333333  7.689350249903883e-004
   0.4705882352941176   -0.4117647058823529   -0.4444444444444444  7.689350249903883e-004
   0.4705882352941176   -0.4705882352941176    0.4444444444444444  7.689350249903883e-004
   0.4705882352941176   -0.4705882352941176    0.3333333333333334  7.689350249903883e-004
   0.4705882352941176   -0.4705882352941176    0.2222222222222222  7.689350249903883e-004
   0.4705882352941176   -0.4705882352941176    0.1111111111111112  7.689350249903883e-004
   0.4705882352941176   -0.4705882352941176    0.0000000000000000  7.689350249903883e-004
   0.4705882352941176   -0.4705882352941176   -0.1111111111111111  7.689350249903883e-004
   0.4705882352941176   -0.4705882352941176   -0.2222222222222222  7.689350249903883e-004
   0.4705882352941176   -0.4705882352941176   -0.3333333333333333  7.689350249903883e-004
   0.4705882352941176   -0.4705882352941176   -0.4444444444444444  7.689350249903883e-004
   0.4117647058823529    0.4705882352941176    0.4444444444444444  7.689350249903883e-004
   0.4117647058823529    0.4705882352941176    0.3333333333333334  7.689350249903883e-004
   0.4117647058823529    0.4705882352941176    0.2222222222222222  7.689350249903883e-004
   0.4117647058823529    0.4705882352941176    0.1111111111111112  7.689350249903883e-004
   0.4117647058823529    0.4705882352941176    0.0000000000000000  7.689350249903883e-004
   0.4117647058823529    0.4705882352941176   -0.1111111111111111  7.689350249903883e-004
   0.4117647058823529    0.4705882352941176   -0.2222222222222222  7.689350249903883e-004
   0.4117647058823529    0.4705882352941176   -0.3333333333333333  7.689350249903883e-004
   0.4117647058823529    0.4705882352941176   -0.4444444444444444  7.689350249903883e-004
   0.4117647058823529    0.4117647058823529    0.4444444444444444  7.689350249903883e-004
   0.4117647058823529    0.4117647058823529    0.3333333333333334  7.689350249903883e-004
   0.4117647058823529    0.4117647058823529    0.2222222222222222  7.689350249903883e-004
   0.4117647058823529    0.4117647058823529    0.1111111111111112  7.689350249903883e-004
   0.4117647058823529    0.4117647058823529    0.0000000000000000  7.689350249903883e-004
   0.4117647058823529    0.4117647058823529   -0.1111111111111111  7.689350249903883e-004
   0.4117647058823529    0.4117647058823529   -0.2222222222222222  7.689350249903883e-004
   0.4117647058823529    0.4117647058823529   -0.3333333333333333  7.689350249903883e-004
   0.4117647058823529    0.4117647058823529   -0.4444444444444444  7.689350249903883e-004
   0.4117647058823529    0.3529411764705882    0.4444444444444444  7.689350249903883e-004
   0.4117647058823529    0.3529411764705882    0.3333333333333334  7.689350249903883e-004
   0.4117647058823529    0.3529411764705882    0.2222222222222222  7.689350249903883e-004
   0.4117647058823529    0.3529411764705882    0.1111111111111112  7.689350249903883e-004
   0.4117647058823529    0.3529411764705882    0.0000000000000000  7.689350249903883e-004
   0.4117647058823529    0.3529411764705882   -0.1111111111111111  7.689350249903883e-004
   0.4117647058823529    0.3529411764705882   -0.2222222222222222  7.689350249903883e-004
   0.4117647058823529    0.3529411764705882   -0.3333333333333333  7.689350249903883e-004
   0.4117647058823529    0.3529411764705882   -0.4444444444444444  7.689350249903883e-004
   0.4117647058823529    0.2941176470588235    0.4444444444444444  7.689350249903883e-004
   0.4117647058823529    0.2941176470588235    0.3333333333333334  7.689350249903883e-004
   0.4117647058823529    0.2941176470588235    0.2222222222222222  7.689350249903883e-004
   0.4117647058823529    0.2941176470588235    0.1111111111111112  7.689350249903883e-004
   0.4117647058823529    0.2941176470588235    0.0000000000000000  7.689350249903883e-004
   0.4117647058823529    0.2941176470588235   -0.1111111111111111  7.689350249903883e-004
   0.4117647058823529    0.2941176470588235   -0.2222222222222222  7.689350249903883e-004
   0.4117647058823529    0.2941176470588235   -0.3333333333333333  7.689350249903883e-004
   0.4117647058823529    0.2941176470588235   -0.4444444444444444  7.689350249903883e-004
   0.4117647058823529    0.2352941176470589    0.4444444444444444  7.689350249903883e-004
   0.4117647058823529    0.2352941176470589    0.3333333333333334  7.689350249903883e-004
   0.4117647058823529    0.2352941176470589    0.2222222222222222  7.689350249903883e-004
   0.4117647058823529    0.2352941176470589    0.1111111111111112  7.689350249903883e-004
   0.4117647058823529    0.2352941176470589    0.0000000000000000  7.689350249903883e-004
   0.4117647058823529    0.2352941176470589   -0.1111111111111111  7.689350249903883e-004
   0.4117647058823529    0.2352941176470589   -0.2222222222222222  7.689350249903883e-004
   0.4117647058823529    0.2352941176470589   -0.3333333333333333  7.689350249903883e-004
   0.4117647058823529    0.2352941176470589   -0.4444444444444444  7.689350249903883e-004
   0.4117647058823529    0.1764705882352942    0.4444444444444444  7.689350249903883e-004
   0.4117647058823529    0.1764705882352942    0.3333333333333334  7.689350249903883e-004
   0.4117647058823529    0.1764705882352942    0.2222222222222222  7.689350249903883e-004
   0.4117647058823529    0.1764705882352942    0.1111111111111112  7.689350249903883e-004
   0.4117647058823529    0.1764705882352942    0.0000000000000000  7.689350249903883e-004
   0.4117647058823529    0.1764705882352942   -0.1111111111111111  7.689350249903883e-004
   0.4117647058823529    0.1764705882352942   -0.2222222222222222  7.689350249903883e-004
   0.4117647058823529    0.1764705882352942   -0.3333333333333333  7.689350249903883e-004
   0.4117647058823529    0.1764705882352942   -0.4444444444444444  7.689350249903883e-004
   0.4117647058823529    0.1176470588235294    0.4444444444444444  7.689350249903883e-004
   0.4117647058823529    0.1176470588235294    0.3333333333333334  7.689350249903883e-004
   0.4117647058823529    0.1176470588235294    0.2222222222222222  7.689350249903883e-004
   0.4117647058823529    0.1176470588235294    0.1111111111111112  7.689350249903883e-004
   0.4117647058823529    0.1176470588235294    0.0000000000000000  7.689350249903883e-004
   0.4117647058823529    0.1176470588235294   -0.1111111111111111  7.689350249903883e-004
   0.4117647058823529    0.1176470588235294   -0.2222222222222222  7.689350249903883e-004
   0.4117647058823529    0.1176470588235294   -0.3333333333333333  7.689350249903883e-004
   0.4117647058823529    0.1176470588235294   -0.4444444444444444  7.689350249903883e-004
   0.4117647058823529    0.0588235294117647    0.4444444444444444  7.689350249903883e-004
   0.4117647058823529    0.0588235294117647    0.3333333333333334  7.689350249903883e-004
   0.4117647058823529    0.0588235294117647    0.2222222222222222  7.689350249903883e-004
   0.4117647058823529    0.0588235294117647    0.1111111111111112  7.689350249903883e-004
   0.4117647058823529    0.0588235294117647    0.0000000000000000  7.689350249903883e-004
   0.4117647058823529    0.0588235294117647   -0.1111111111111111  7.689350249903883e-004
   0.4117647058823529    0.0588235294117647   -0.2222222222222222  7.689350249903883e-004
   0.4117647058823529    0.0588235294117647   -0.3333333333333333  7.689350249903883e-004
   0.4117647058823529    0.0588235294117647   -0.4444444444444444  7.689350249903883e-004
   0.4117647058823529    0.0000000000000000    0.4444444444444444  7.689350249903883e-004
   0.4117647058823529    0.0000000000000000    0.3333333333333334  7.689350249903883e-004
   0.4117647058823529    0.0000000000000000    0.2222222222222222  7.689350249903883e-004
   0.4117647058823529    0.0000000000000000    0.1111111111111112  7.689350249903883e-004
   0.4117647058823529    0.0000000000000000    0.0000000000000000  7.689350249903883e-004
   0.4117647058823529    0.0000000000000000   -0.1111111111111111  7.689350249903883e-004
   0.4117647058823529    0.0000000000000000   -0.2222222222222222  7.689350249903883e-004
   0.4117647058823529    0.0000000000000000   -0.3333333333333333  7.689350249903883e-004
   0.4117647058823529    0.0000000000000000   -0.4444444444444444  7.689350249903883e-004
   0.4117647058823529   -0.0588235294117647    0.4444444444444444  7.689350249903883e-004
   0.4117647058823529   -0.0588235294117647    0.3333333333333334  7.689350249903883e-004
   0.4117647058823529   -0.0588235294117647    0.2222222222222222  7.689350249903883e-004
   0.4117647058823529   -0.0588235294117647    0.1111111111111112  7.689350249903883e-004
   0.4117647058823529   -0.0588235294117647    0.0000000000000000  7.689350249903883e-004
   0.4117647058823529   -0.0588235294117647   -0.1111111111111111  7.689350249903883e-004
   0.4117647058823529   -0.0588235294117647   -0.2222222222222222  7.689350249903883e-004
   0.4117647058823529   -0.0588235294117647   -0.3333333333333333  7.689350249903883e-004
   0.4117647058823529   -0.0588235294117647   -0.4444444444444444  7.689350249903883e-004
   0.4117647058823529   -0.1176470588235294    0.4444444444444444  7.689350249903883e-004
   0.4117647058823529   -0.1176470588235294    0.3333333333333334  7.689350249903883e-004
   0.4117647058823529   -0.1176470588235294    0.2222222222222222  7.689350249903883e-004
   0.4117647058823529   -0.1176470588235294    0.1111111111111112  7.689350249903883e-004
   0.4117647058823529   -0.1176470588235294    0.0000000000000000  7.689350249903883e-004
   0.4117647058823529   -0.1176470588235294   -0.1111111111111111  7.689350249903883e-004
   0.4117647058823529   -0.1176470588235294   -0.2222222222222222  7.689350249903883e-004
   0.4117647058823529   -0.1176470588235294   -0.3333333333333333  7.689350249903883e-004
   0.4117647058823529   -0.1176470588235294   -0.4444444444444444  7.689350249903883e-004
   0.4117647058823529   -0.1764705882352941    0.4444444444444444  7.689350249903883e-004
   0.4117647058823529   -0.1764705882352941    0.3333333333333334  7.689350249903883e-004
   0.4117647058823529   -0.1764705882352941    0.2222222222222222  7.689350249903883e-004
   0.4117647058823529   -0.1764705882352941    0.1111111111111112  7.689350249903883e-004
   0.4117647058823529   -0.1764705882352941    0.0000000000000000  7.689350249903883e-004
   0.4117647058823529   -0.1764705882352941   -0.1111111111111111  7.689350249903883e-004
   0.4117647058823529   -0.1764705882352941   -0.2222222222222222  7.689350249903883e-004
   0.4117647058823529   -0.1764705882352941   -0.3333333333333333  7.689350249903883e-004
   0.4117647058823529   -0.1764705882352941   -0.4444444444444444  7.689350249903883e-004
   0.4117647058823529   -0.2352941176470588    0.4444444444444444  7.689350249903883e-004
   0.4117647058823529   -0.2352941176470588    0.3333333333333334  7.689350249903883e-004
   0.4117647058823529   -0.2352941176470588    0.2222222222222222  7.689350249903883e-004
   0.4117647058823529   -0.2352941176470588    0.1111111111111112  7.689350249903883e-004
   0.4117647058823529   -0.2352941176470588    0.0000000000000000  7.689350249903883e-004
   0.4117647058823529   -0.2352941176470588   -0.1111111111111111  7.689350249903883e-004
   0.4117647058823529   -0.2352941176470588   -0.2222222222222222  7.689350249903883e-004
   0.4117647058823529   -0.2352941176470588   -0.3333333333333333  7.689350249903883e-004
   0.4117647058823529   -0.2352941176470588   -0.4444444444444444  7.689350249903883e-004
   0.4117647058823529   -0.2941176470588235    0.4444444444444444  7.689350249903883e-004
   0.4117647058823529   -0.2941176470588235    0.3333333333333334  7.689350249903883e-004
   0.4117647058823529   -0.2941176470588235    0.2222222222222222  7.689350249903883e-004
   0.4117647058823529   -0.2941176470588235    0.1111111111111112  7.689350249903883e-004
   0.4117647058823529   -0.2941176470588235    0.0000000000000000  7.689350249903883e-004
   0.4117647058823529   -0.2941176470588235   -0.1111111111111111  7.689350249903883e-004
   0.4117647058823529   -0.2941176470588235   -0.2222222222222222  7.689350249903883e-004
   0.4117647058823529   -0.2941176470588235   -0.3333333333333333  7.689350249903883e-004
   0.4117647058823529   -0.2941176470588235   -0.4444444444444444  7.689350249903883e-004
   0.4117647058823529   -0.3529411764705882    0.4444444444444444  7.689350249903883e-004
   0.4117647058823529   -0.3529411764705882    0.3333333333333334  7.689350249903883e-004
   0.4117647058823529   -0.3529411764705882    0.2222222222222222  7.689350249903883e-004
   0.4117647058823529   -0.3529411764705882    0.1111111111111112  7.689350249903883e-004
   0.4117647058823529   -0.3529411764705882    0.0000000000000000  7.689350249903883e-004
   0.4117647058823529   -0.3529411764705882   -0.1111111111111111  7.689350249903883e-004
   0.4117647058823529   -0.3529411764705882   -0.2222222222222222  7.689350249903883e-004
   0.4117647058823529   -0.3529411764705882   -0.3333333333333333  7.689350249903883e-004
   0.4117647058823529   -0.3529411764705882   -0.4444444444444444  7.689350249903883e-004
   0.4117647058823529   -0.4117647058823529    0.4444444444444444  7.689350249903883e-004
   0.4117647058823529   -0.4117647058823529    0.3333333333333334  7.689350249903883e-004
   0.4117647058823529   -0.4117647058823529    0.2222222222222222  7.689350249903883e-004
   0.4117647058823529   -0.4117647058823529    0.1111111111111112  7.689350249903883e-004
   0.4117647058823529   -0.4117647058823529    0.0000000000000000  7.689350249903883e-004
   0.4117647058823529   -0.4117647058823529   -0.1111111111111111  7.689350249903883e-004
   0.4117647058823529   -0.4117647058823529   -0.2222222222222222  7.689350249903883e-004
   0.4117647058823529   -0.4117647058823529   -0.3333333333333333  7.689350249903883e-004
   0.4117647058823529   -0.4117647058823529   -0.4444444444444444  7.689350249903883e-004
   0.4117647058823529   -0.4705882352941176    0.4444444444444444  7.689350249903883e-004
   0.4117647058823529   -0.4705882352941176    0.3333333333333334  7.689350249903883e-004
   0.4117647058823529   -0.4705882352941176    0.2222222222222222  7.689350249903883e-004
   0.4117647058823529   -0.4705882352941176    0.1111111111111112  7.689350249903883e-004
   0.4117647058823529   -0.4705882352941176    0.0000000000000000  7.689350249903883e-004
   0.4117647058823529   -0.4705882352941176   -0.1111111111111111  7.689350249903883e-004
   0.4117647058823529   -0.4705882352941176   -0.2222222222222222  7.689350249903883e-004
   0.4117647058823529   -0.4705882352941176   -0.3333333333333333  7.689350249903883e-004
   0.4117647058823529   -0.4705882352941176   -0.4444444444444444  7.689350249903883e-004
   0.3529411764705882    0.4705882352941176    0.4444444444444444  7.689350249903883e-004
   0.3529411764705882    0.4705882352941176    0.3333333333333334  7.689350249903883e-004
   0.3529411764705882    0.4705882352941176    0.2222222222222222  7.689350249903883e-004
   0.3529411764705882    0.4705882352941176    0.1111111111111112  7.689350249903883e-004
   0.3529411764705882    0.4705882352941176    0.0000000000000000  7.689350249903883e-004
   0.3529411764705882    0.4705882352941176   -0.1111111111111111  7.689350249903883e-004
   0.3529411764705882    0.4705882352941176   -0.2222222222222222  7.689350249903883e-004
   0.3529411764705882    0.4705882352941176   -0.3333333333333333  7.689350249903883e-004
   0.3529411764705882    0.4705882352941176   -0.4444444444444444  7.689350249903883e-004
   0.3529411764705882    0.4117647058823529    0.4444444444444444  7.689350249903883e-004
   0.3529411764705882    0.4117647058823529    0.3333333333333334  7.689350249903883e-004
   0.3529411764705882    0.4117647058823529    0.2222222222222222  7.689350249903883e-004
   0.3529411764705882    0.4117647058823529    0.1111111111111112  7.689350249903883e-004
   0.3529411764705882    0.4117647058823529    0.0000000000000000  7.689350249903883e-004
   0.3529411764705882    0.4117647058823529   -0.1111111111111111  7.689350249903883e-004
   0.3529411764705882    0.4117647058823529   -0.2222222222222222  7.689350249903883e-004
   0.3529411764705882    0.4117647058823529   -0.3333333333333333  7.689350249903883e-004
   0.3529411764705882    0.4117647058823529   -0.4444444444444444  7.689350249903883e-004
   0.3529411764705882    0.3529411764705882    0.4444444444444444  7.689350249903883e-004
   0.3529411764705882    0.3529411764705882    0.3333333333333334  7.689350249903883e-004
   0.3529411764705882    0.3529411764705882    0.2222222222222222  7.689350249903883e-004
   0.3529411764705882    0.3529411764705882    0.1111111111111112  7.689350249903883e-004