ENCUT = 300
ISMEAR = 0
SIGMA = 0.1
PREC = Accurate
