Si
1.0
        5.4306998253         0.0000000000         0.0000000000
        0.0000000000         5.4306998253         0.0000000000
        0.0000000000         0.0000000000         5.4306998253
   Si
    8
Direct
     0.000000000         0.000000000         0.000000000
     0.000000000         0.500000000         0.500000000
     0.500000000         0.000000000         0.500000000
     0.500000000         0.500000000         0.000000000
     0.749999978         0.250000000         0.749999978
     0.250000000         0.250000000         0.250000000
     0.250000000         0.749999978         0.749999978
     0.749999978         0.749999978         0.250000000
