Si
1.0
        5.4306998253         0.0000000000         0.0000000000
        0.0000000000         5.4306998253         0.0000000000
        0.0000000000         0.0947787806         5.4298727034
   Si
    8
Direct
     0.000000000         0.000000000         0.000000000
     0.000000000         0.500000022         0.499999982
     0.500000000         0.000000001         0.499999982
     0.500000000         0.500000000         0.000000000
     0.749999978         0.250000011         0.749999974
     0.250000000         0.250000011         0.249999991
     0.250000000         0.749999967         0.749999974
     0.749999978         0.749999945         0.249999991
